(set-logic ALL)
(declare-fun seed0_T_1 () Bool)
(declare-fun seed0_var_0xINPUT_130759 () String)
(assert (and (or (= seed0_T_1 (not (= "AA1ND6MEXd" seed0_var_0xINPUT_130759))) (xor (str.suffixof (str.++ seed0_var_0xINPUT_130759 "fR1") (str.++ seed0_var_0xINPUT_130759 "7cFWzhm9lLyPgVk6Bx")) (str.contains (str.++ seed0_var_0xINPUT_130759 "Zm45OTuUSylE8Ckd") (str.++ seed0_var_0xINPUT_130759 "92OkvDtAXl8qCLda4Tw")))) (or seed0_T_1 (and (str.suffixof (str.++ seed0_var_0xINPUT_130759 "dvFWs20wX9j") (str.++ seed0_var_0xINPUT_130759 "GvPITf14EmOVdo2")) (str.suffixof (str.++ seed0_var_0xINPUT_130759 "") (str.++ seed0_var_0xINPUT_130759 "WY65VP9aD02p"))))))
(check-sat)
(exit)